This is Ipopt version 3.10.1, running with linear solver mumps.

Number of nonzeros in equality constraint Jacobian...:      225
Number of nonzeros in inequality constraint Jacobian.:        0
Number of nonzeros in Lagrangian Hessian.............:     5568

Total number of variables............................:      114
                     variables with only lower bounds:        0
                variables with lower and upper bounds:      114
                     variables with only upper bounds:        0
Total number of equality constraints.................:       75
Total number of inequality constraints...............:        0
        inequality constraints with only lower bounds:        0
   inequality constraints with lower and upper bounds:        0
        inequality constraints with only upper bounds:        0

iter    objective    inf_pr   inf_du lg(mu)  ||d||  lg(rg) alpha_du alpha_pr  ls
   0 -4.1822911e-05 8.64e-03 3.07e-05  -1.0 0.00e+00    -  0.00e+00 0.00e+00   0
   1 -4.2604506e-05 4.44e-16 1.07e-03  -1.7 1.96e-02    -  9.91e-01 1.00e+00h  1
   2 -4.0618312e-05 3.89e-15 2.19e-03  -2.5 3.68e-02    -  9.83e-01 1.00e+00f  1
   3 -4.1770730e-05 8.33e-12 6.91e-05  -3.8 4.67e-02    -  9.90e-01 1.00e+00f  1
   4 -4.6562549e-05 6.66e-16 1.02e-04  -5.7 1.25e-02    -  9.57e-01 1.00e+00h  1
   5 -4.7702864e-05 6.22e-15 2.77e-05  -5.7 2.78e-03  -2.0 1.00e+00 1.00e+00f  1
   6 -5.1546782e-05 2.44e-15 2.81e-05  -5.7 8.51e-03  -2.5 1.00e+00 1.00e+00f  1
   7 -6.9126585e-05 2.22e-16 3.96e-05  -5.7 3.09e-02  -3.0 1.00e+00 1.00e+00f  1
   8 -1.8675992e-05 2.22e-16 1.73e-04  -5.7 1.52e+00  -3.4 7.92e-02 1.10e-01h  2
   9 -2.0560090e-05 2.22e-16 1.52e-04  -5.7 9.91e-02  -3.9 1.00e+00 1.25e-01f  4
iter    objective    inf_pr   inf_du lg(mu)  ||d||  lg(rg) alpha_du alpha_pr  ls
  10 -2.2050479e-05 2.22e-16 1.16e-04  -5.7 4.46e-02  -3.5 1.00e+00 2.50e-01f  3
  11 -2.2194441e-05 2.22e-16 1.14e-04  -5.7 1.30e-01  -4.0 1.00e+00 7.81e-03f  8
  12 -2.5630705e-05 2.22e-16 6.12e-05  -5.7 4.76e-02  -3.5 1.00e+00 5.00e-01f  2
  13 -6.9678749e-05 2.22e-16 5.99e-05  -5.7 1.91e-01  -4.0 1.00e+00 1.00e+00f  1
  14 -1.3216685e-04 2.22e-16 1.17e-04  -5.7 8.30e-01  -3.6 5.99e-01 1.00e-01f  1
  15 -2.3557204e-04 4.97e-14 1.90e-04  -5.7 2.22e-01  -3.2 1.00e+00 3.47e-01f  1
  16 -3.2833675e-04 8.75e-14 2.05e-04  -5.7 9.70e-02  -2.7 1.00e+00 4.44e-01f  1
  17 -4.0310956e-04 9.41e-14 2.01e-04  -5.7 3.53e-02  -2.3 1.00e+00 7.14e-01f  1
  18 -7.3488649e-04 2.22e-13 1.49e-03  -5.7 1.99e+00  -2.8 2.24e-01 3.75e-02f  1
  19 -1.3097890e-03 4.14e-13 1.01e-03  -5.7 2.20e-01  -2.4 1.00e+00 3.19e-01f  1
iter    objective    inf_pr   inf_du lg(mu)  ||d||  lg(rg) alpha_du alpha_pr  ls
  20 -1.6912374e-03 3.02e-13 1.29e-03  -5.7 1.06e-01  -1.9 1.00e+00 2.71e-01f  1
  21 -1.6854792e-03 3.02e-13 1.24e-03  -5.7 2.64e-01  -2.4 2.53e-01 1.95e-03f 10
  22 -1.7426509e-03 3.32e-13 6.81e-03  -5.7 2.09e-01  -2.0 1.00e+00 2.23e-02f  1
  23 -2.2358435e-03 5.36e-13 1.14e-03  -5.7 3.60e-02  -1.6 1.00e+00 1.00e+00f  1
  24 -3.2014666e-03 5.33e-13 1.44e-02  -5.7 8.38e+00  -2.0 6.38e-02 5.61e-03f  1
  25 -3.6412753e-03 4.22e-13 4.50e-03  -5.7 7.69e-02  -1.6 1.00e+00 2.09e-01f  1
  26 -4.3420055e-03 4.44e-16 1.58e-03  -5.7 2.32e-02  -1.2 1.00e+00 1.00e+00f  1
  27 -5.0277269e-03 3.74e-13 7.02e-03  -5.7 1.82e-01  -1.7 1.00e+00 1.18e-01f  1
  28 -5.6163918e-03 1.97e-13 3.09e-03  -5.7 3.89e-02  -1.2 1.00e+00 4.74e-01f  1
  29 -6.0676824e-03 1.85e-13 1.32e-02  -5.7 2.84e-01  -1.7 1.00e+00 5.97e-02f  1
iter    objective    inf_pr   inf_du lg(mu)  ||d||  lg(rg) alpha_du alpha_pr  ls
  30 -6.7170835e-03 1.03e-13 3.82e-03  -5.7 5.55e-02  -1.3 1.00e+00 4.42e-01f  1
  31 -9.2476078e-03 1.41e-12 1.04e-02  -5.7 4.77e-01  -1.8 6.60e-01 1.80e-01f  1
  32 -1.1656670e-02 2.96e-13 3.78e-03  -5.7 6.94e-02  -1.3 1.00e+00 7.91e-01f  1
  33 -1.2397823e-02 1.53e-13 5.12e-03  -5.7 2.84e-02  -0.9 1.00e+00 4.81e-01f  1
  34 -1.3504000e-02 1.33e-13 1.38e-02  -5.7 1.66e-01  -1.4 1.00e+00 1.35e-01f  1
  35 -1.4436730e-02 1.84e-12 6.23e-03  -5.7 3.48e-02  -1.0 1.00e+00 5.51e-01f  1
  36 -1.9209193e-02 3.50e-12 6.10e-03  -5.7 1.43e-01  -1.4 1.00e+00 5.53e-01f  1
  37 -1.9927674e-02 3.53e-12 7.78e-03  -5.7 6.64e-02  -1.0 1.00e+00 1.47e-01f  1
  38 -2.1134023e-02 3.46e-12 3.64e-02  -5.7 1.11e+00  -1.5 2.67e-01 1.88e-02f  1
  39 -2.5640448e-02 3.65e-12 8.03e-03  -5.7 8.24e-02  -1.1 1.00e+00 7.42e-01f  1
iter    objective    inf_pr   inf_du lg(mu)  ||d||  lg(rg) alpha_du alpha_pr  ls
  40 -3.2912317e-02 6.39e-12 1.02e-02  -5.7 5.87e-01  -1.5 1.61e-01 1.29e-01f  1
  41 -3.7856652e-02 8.28e-12 3.57e-02  -5.7 1.29e-01  -1.1 1.00e+00 2.61e-01f  1
  42 -3.9814219e-02 7.31e-12 1.76e-02  -5.7 4.23e-02  -0.7 1.00e+00 2.82e-01f  1
  43 -4.8721877e-02 6.36e-12 2.81e-02  -5.7 3.87e-01  -1.2 2.57e-01 1.30e-01f  1
  44 -5.2243560e-02 7.19e-12 3.74e-02  -5.7 9.42e-02  -0.7 1.00e+00 1.79e-01f  1
  45 -5.4578773e-02 4.32e-12 1.51e-02  -5.7 2.49e-02  -0.3 8.56e-01 3.99e-01f  1
  46 -5.7877227e-02 5.81e-12 1.44e-02  -5.7 1.37e-01  -0.8 5.04e-02 1.17e-01f  1
  47 -5.8678279e-02 5.58e-12 3.05e-02  -5.7 3.47e-02  -0.4 1.00e+00 1.09e-01f  1
  48 -6.5106681e-02 8.49e-12 2.26e-02  -5.7 1.90e-01  -0.8 1.58e-01 1.80e-01f  1
  49 -6.5102178e-02 8.49e-12 2.23e-02  -5.7 5.95e-01  -1.3 7.73e-02 2.95e-04f  8
iter    objective    inf_pr   inf_du lg(mu)  ||d||  lg(rg) alpha_du alpha_pr  ls
  50 -6.9260334e-02 1.03e-11 2.20e-02  -5.7 2.64e-01  -0.9 1.48e-01 1.14e-01f  1
  51 -6.9247338e-02 1.03e-11 2.20e-02  -5.7 7.09e-01  -1.4 1.14e-04 4.08e-04f  8
  52 -6.9253711e-02 1.03e-11 4.15e-02  -5.7 3.98e-01  -0.9 2.70e-01 1.10e-04f  2
  53 -7.2826099e-02 5.43e-12 2.85e-02  -5.7 4.01e-02  -0.5 1.00e+00 4.70e-01f  1
  54 -7.8813902e-02 8.13e-12 7.95e-02  -5.7 1.53e-01  -1.0 1.00e+00 1.60e-01f  1
  55 -7.9230142e-02 7.81e-12 7.29e-02  -5.7 8.46e-01  -1.5 6.90e-02 3.90e-02f  1
  56 -7.9253818e-02 7.82e-12 1.04e-01  -5.7 1.68e-01  -1.0 1.00e+00 6.56e-04f  1
  57 -7.9247930e-02 7.82e-12 9.16e-02  -5.7 4.06e-01    -  1.30e-01 2.03e-04f 12
  58 -7.0068217e-02 4.77e-12 1.32e-01  -5.7 4.03e-01    -  7.64e-02 3.90e-01h  1
  59 -7.0060785e-02 4.77e-12 7.24e-02  -5.7 2.43e-01    -  5.14e-01 5.83e-04f  8
iter    objective    inf_pr   inf_du lg(mu)  ||d||  lg(rg) alpha_du alpha_pr  ls
  60 -6.5106906e-02 4.64e-12 7.36e-02  -5.7 3.03e+00  -1.5 3.70e-02 2.68e-02h  1
  61 -6.5096234e-02 4.64e-12 6.74e-02  -5.7 5.12e+00    -  1.54e-02 6.19e-04f  6
  62 -6.4272780e-02 3.97e-12 5.94e-02  -5.7 2.37e-01  -2.0 3.20e-01 1.43e-01h  1
  63 -6.4423359e-02 3.14e-12 5.32e-02  -5.7 3.21e-02  -0.7 3.11e-02 2.11e-01f  1
  64 -6.4882570e-02 4.03e-12 5.82e-02  -5.7 7.47e-02  -1.1 1.00e+00 1.19e-01f  1
  65 -6.6141509e-02 1.33e-15 3.23e-03  -5.7 1.64e-02  -0.7 1.00e+00 1.00e+00f  1
  66 -7.0114632e-02 6.66e-16 1.35e-02  -5.7 1.22e-01  -1.2 1.00e+00 4.63e-01f  1
  67 -7.0110343e-02 6.66e-16 1.76e-02  -5.7 5.71e-01  -1.7 2.36e-01 1.08e-04f 12
  68 -7.0106615e-02 6.66e-16 2.24e-02  -5.7 2.41e-01    -  2.43e-01 2.82e-04f 12
  69 -6.9902544e-02 6.66e-16 2.27e-02  -5.7 2.41e-01    -  6.09e-02 1.56e-02h  7
iter    objective    inf_pr   inf_du lg(mu)  ||d||  lg(rg) alpha_du alpha_pr  ls
  70 -6.3962246e-02 4.44e-16 2.87e-02  -5.7 2.38e-01    -  6.55e-02 8.02e-01h  1
  71 -6.6301580e-02 4.44e-16 3.92e-02  -5.7 3.97e-01    -  1.40e-02 1.61e-01f  1
  72 -7.5756263e-02 3.33e-16 6.25e-02  -5.7 2.99e-01  -1.3 9.90e-02 5.16e-01f  1
  73 -7.5722046e-02 4.44e-16 6.25e-02  -5.7 1.85e-01  -1.7 1.99e-01 3.87e-03f  8
  74 -7.8224825e-02 4.44e-16 6.44e-02  -5.7 4.07e-01  -2.2 3.56e-02 1.46e-01f  1
  75 -8.4472974e-02 4.44e-16 6.33e-02  -5.7 7.02e-01    -  9.48e-02 1.82e-01f  1
  76 -8.4571805e-02 2.22e-16 3.17e-02  -5.7 1.81e-01  -1.8 5.76e-01 3.99e-01f  1
  77 -8.7026822e-02 2.22e-16 6.01e-02  -5.7 3.17e-01    -  7.54e-01 2.24e-01f  1
  78 -9.0396187e-02 2.22e-16 6.37e-03  -5.7 1.04e-01  -1.4 1.00e+00 1.00e+00f  1
  79 -9.0671138e-02 2.22e-16 3.92e-03  -5.7 1.81e-01    -  5.22e-01 4.61e-01f  2
iter    objective    inf_pr   inf_du lg(mu)  ||d||  lg(rg) alpha_du alpha_pr  ls
  80 -9.1591684e-02 4.44e-16 3.69e-03  -5.7 2.94e-02  -0.9 1.00e+00 1.00e+00f  1
  81 -9.5566445e-02 3.84e-12 2.29e-02  -5.7 4.73e+00  -1.4 3.64e-02 1.52e-02f  1
  82 -9.5561637e-02 3.84e-12 2.28e-02  -5.7 3.07e-01    -  1.14e-03 2.80e-04f 11
  83 -9.7007813e-02 3.45e-12 2.40e-02  -5.7 9.70e-01    -  1.26e-01 1.00e-01f  1
  84 -9.7004329e-02 3.45e-12 3.37e-02  -5.7 1.03e+00  -1.9 9.17e-02 3.81e-05f 11
  85 -9.6996423e-02 3.45e-12 4.50e-02  -5.7 1.75e-01  -2.4 3.74e-01 5.15e-04f  9
  86 -9.6218439e-02 3.23e-12 3.39e-02  -5.7 1.92e-01  -2.8 2.93e-01 6.31e-02h  1
  87 -9.6212721e-02 3.23e-12 5.05e-02  -5.7 1.89e-01  -3.3 3.37e-01 5.42e-04f 11
  88 -9.0102782e-02 1.11e-15 2.83e-02  -5.7 1.95e-01    -  2.29e-01 1.00e+00h  1
  89 -9.0526772e-02 9.99e-16 2.10e-02  -5.7 7.75e-02    -  1.47e-01 6.12e-01f  1
iter    objective    inf_pr   inf_du lg(mu)  ||d||  lg(rg) alpha_du alpha_pr  ls
  90 -9.1046773e-02 4.47e-12 2.03e-02  -5.7 2.73e-02  -1.1 2.70e-01 1.00e+00f  1
  91 -9.5523091e-02 4.06e-12 3.96e-02  -5.7 1.03e+00  -1.6 4.26e-02 9.12e-02f  1
  92 -9.7729416e-02 3.15e-12 3.60e-02  -5.7 1.18e-01  -1.1 1.55e-01 2.26e-01f  1
  93 -1.0168007e-01 1.23e-11 1.38e-02  -5.7 4.14e-02  -0.7 6.61e-01 1.00e+00f  1
  94 -9.7013705e-02 1.20e-11 5.39e-02  -5.7 1.73e+00  -1.2 6.75e-02 2.29e-02h  1
  95 -9.6994904e-02 1.20e-11 6.97e-02  -5.7 3.97e-01  -1.7 7.48e-05 8.51e-04f  2
  96 -9.8531940e-02 9.68e-12 5.97e-02  -5.7 3.43e-01  -2.1 2.20e-01 1.92e-01f  1
  97 -1.0181283e-01 5.59e-13 1.97e-02  -5.7 2.07e-01  -2.6 7.29e-01 9.42e-01f  1
  98 -1.0180494e-01 5.58e-13 2.90e-02  -5.7 2.26e-01  -1.3 3.56e-01 2.22e-03f  5
  99 -1.0209430e-01 4.17e-13 2.13e-02  -5.7 1.48e-01    -  1.49e-01 2.52e-01f  1
iter    objective    inf_pr   inf_du lg(mu)  ||d||  lg(rg) alpha_du alpha_pr  ls
 100 -1.0256020e-01 5.26e-12 2.22e-02  -5.7 2.38e-02  -0.9 9.88e-02 1.00e+00f  1
 101 -1.0428251e-01 1.35e-12 1.32e-02  -5.7 1.41e-01  -1.3 4.85e-01 7.43e-01h  1
 102 -1.1337601e-01 2.22e-16 4.58e-02  -5.7 9.15e-02  -0.9 1.61e-01 1.00e+00f  1
 103 -1.0817092e-01 2.22e-16 5.90e-02  -5.7 2.01e-01  -1.4 4.73e-01 2.02e-01h  1
 104 -1.0817093e-01 2.22e-16 5.25e-02  -5.7 3.31e-01  -1.0 2.69e-02 2.73e-07f 16
 105 -1.0816505e-01 2.22e-16 5.27e-02  -5.7 2.10e-01  -1.4 4.57e-03 3.45e-04f  6
 106 -1.0818783e-01 2.22e-16 4.27e-02  -5.7 1.26e-02  -0.1 2.66e-01 1.47e-02f  2
 107 -1.0818783e-01 2.22e-16 3.84e-02  -5.7 4.80e-02  -0.6 8.93e-02 2.04e-09f 26
 108 -1.0818783e-01 2.22e-16 3.17e-02  -5.7 1.98e+00  -1.1 1.10e-02 8.52e-18h 51
 109 -1.0818783e-01 2.22e-16 3.13e-02  -5.7 5.75e-02  -0.6 1.77e-02 3.04e-16h 51
iter    objective    inf_pr   inf_du lg(mu)  ||d||  lg(rg) alpha_du alpha_pr  ls
 110 -1.0792172e-01 2.22e-16 3.12e-02  -5.7 1.59e+00  -1.1 1.67e-03 1.67e-03s 13
 111 -1.0801484e-01 2.22e-16 3.08e-02  -5.7 6.86e-02  -0.7 1.33e-02 1.33e-02s 13
 112 -1.0815915e-01 1.47e-12 2.84e-02  -5.7 1.82e-02  -0.3 7.81e-02 7.81e-02s 13
 113 -1.0931505e-01 1.29e-12 2.49e-02  -5.7 8.53e-02  -0.7 1.24e-01 1.24e-01s 13
 114 -1.1006948e-01 9.44e-13 1.83e-02  -5.7 2.40e-02  -0.3 2.66e-01 2.66e-01s 13
Restoration phase is called at point that is almost feasible,
  with constraint violation 1.106826e-11. Abort.

Number of Iterations....: 114

                                   (scaled)                 (unscaled)
Objective...............:  -1.1006947819737251e-01   -1.1006947819737251e-01
Dual infeasibility......:   1.8335031238246712e-02    1.8335031238246712e-02
Constraint violation....:   9.4391161553630809e-13    9.4391161553630809e-13
Complementarity.........:   2.2414351373857097e-06    2.2414351373857097e-06
Overall NLP error.......:   1.8335031238246712e-02    1.8335031238246712e-02


Number of objective function evaluations             = 433
Number of objective gradient evaluations             = 116
Number of equality constraint evaluations            = 433
Number of inequality constraint evaluations          = 0
Number of equality constraint Jacobian evaluations   = 1
Number of inequality constraint Jacobian evaluations = 0
Number of Lagrangian Hessian evaluations             = 115
Total CPU secs in IPOPT (w/o function evaluations)   =      1.330
Total CPU secs in NLP function evaluations           =     30.090

EXIT: Restoration Failed!
